170	32	4	152	
10	10	10	10

0	0	0	0	0	0	1	1
1	1	1	1	0	10	2	3	2
2	0	5	5	1	6	1	4
3	4	7	5	0	9	1	4
4	5	4	0	6	1	1	5
5	4	0	3	4	6	1	6
6	2	5	1	0	2	2	8	7
7	3	3	0	4	10	2	11	9
8	2	6	4	0	4	2	11	9
9	0	4	4	1	1	1	10
10	3	4	0	6	8	1	12
11	8	4	3	0	4	1	12
12	0	4	5	3	3	1	13
13	7	3	3	0	2	2	15	14
14	3	7	1	0	2	2	17	16
15	7	0	7	5	10	2	17	16
16	0	3	4	4	8	1	18
17	5	0	3	3	4	1	18
18	0	4	5	3	4	1	19
19	4	0	5	5	1	2	21	20
20	0	3	5	2	9	2	23	22
21	0	4	3	5	1	2	23	22
22	2	6	3	0	1	1	24
23	0	3	5	6	9	1	24
24	0	2	5	4	9	2	27	25
25	4	2	0	6	10	1	26
26	6	4	0	5	5	2	29	28
27	5	3	0	4	5	2	29	28
28	3	3	0	3	8	1	30
29	2	8	5	0	8	1	30
30	4	2	7	0	10	1	31
31	0	0	0	0	0	0
